language Essence 1.3

letting class be
        function(1 --> 1, 2 --> 1, 3 --> 1, 4 --> 1, 5 --> 1, 6 --> 1, 7 --> 1, 8 --> 1, 9 --> 1, 10 --> 1, 11 --> 1,
                 12 --> 1, 13 --> 1, 14 --> 1, 15 --> 1, 16 --> 1, 17 --> 1, 18 --> 1, 19 --> 1, 20 --> 1, 21 --> 1,
                 22 --> 1, 23 --> 1, 24 --> 1, 25 --> 1, 26 --> 1, 27 --> 1, 28 --> 1, 29 --> 1, 30 --> 1, 31 --> 1,
                 32 --> 1, 33 --> 1, 34 --> 1, 35 --> 1, 36 --> 1, 37 --> 1, 38 --> 1, 39 --> 1, 40 --> 1, 41 --> 1,
                 42 --> 1, 43 --> 1, 44 --> 1)
letting deck_length be 130
letting deck_width be 25
letting length be
        function(1 --> 1, 2 --> 6, 3 --> 1, 4 --> 1, 5 --> 1, 6 --> 1, 7 --> 1, 8 --> 38, 9 --> 1, 10 --> 2, 11 --> 1,
                 12 --> 1, 13 --> 1, 14 --> 1, 15 --> 1, 16 --> 1, 17 --> 1, 18 --> 4, 19 --> 1, 20 --> 1, 21 --> 1,
                 22 --> 8, 23 --> 1, 24 --> 1, 25 --> 1, 26 --> 1, 27 --> 1, 28 --> 1, 29 --> 1, 30 --> 1, 31 --> 1,
                 32 --> 1, 33 --> 3, 34 --> 1, 35 --> 1, 36 --> 1, 37 --> 1, 38 --> 1, 39 --> 1, 40 --> 1, 41 --> 1,
                 42 --> 1, 43 --> 8, 44 --> 1)
letting n_classes be 1
letting n_containers be 44
letting separation be function()
letting width be
        function(1 --> 14, 2 --> 25, 3 --> 19, 4 --> 20, 5 --> 12, 6 --> 6, 7 --> 20, 8 --> 24, 9 --> 22, 10 --> 21,
                 11 --> 2, 12 --> 3, 13 --> 1, 14 --> 12, 15 --> 18, 16 --> 18, 17 --> 4, 18 --> 22, 19 --> 12,
                 20 --> 7, 21 --> 17, 22 --> 23, 23 --> 10, 24 --> 11, 25 --> 20, 26 --> 2, 27 --> 5, 28 --> 1,
                 29 --> 17, 30 --> 3, 31 --> 11, 32 --> 12, 33 --> 23, 34 --> 16, 35 --> 18, 36 --> 19, 37 --> 21,
                 38 --> 17, 39 --> 22, 40 --> 9, 41 --> 19, 42 --> 2, 43 --> 24, 44 --> 1)
